468,298
321,46
567,443
803,166
761,366
654,459
628,433
593,527
616,820
749,539
852,461
829,383
705,423
624,424
627,300
681,316
385,452
593,527
681,706
830,700
1006,457
1095,341
892,115
858,378
761,366
733,478
749,539
857,648
945,770
935,660
624,424
560,318
468,298
417,42
453,332
776,593
875,547
852,461
858,378
1006,457
